(declare-rel Invariant ((_ BitVec 3) (_ BitVec 3)))
(declare-rel Goal ())
(declare-var x (_ BitVec 3))
(declare-var y (_ BitVec 3))
(declare-var xp (_ BitVec 3))
(declare-var yp (_ BitVec 3))
(rule (=> (not (or (not (= x #b001)) (not (= y #b001)))) (Invariant x y)))
(rule (=> (and (Invariant x y)
  ;(= (ite (= (bvurem x #b010) #b000) (bvadd x #b001) (bvadd x #b111)) xp)
  (= (ite (= (bvurem x #b010) #b000) #b001 #b010) xp)
  ;(= (ite (= (bvurem x #b010) #b001) (bvadd y #b010) (bvadd y #b110)) yp)
  (= (ite (= (bvurem x #b010) #b001) #b011 #b001) yp)
  ) (Invariant xp yp)))
(rule (=> (and (Invariant x y) (= (bvurem y #b010) #b000)) Goal))
(query Goal)
